NAME          BLANK   
ROWS
 N  OBJROW
 L  R0000000
COLUMNS
    C0000000  OBJROW     -394.         R0000000  116.        
    C0000001  OBJROW     -121.         R0000000  864.        
    C0000002  OBJROW     -489.         R0000000  562.        
    C0000003  OBJROW     -586.         R0000000  217.        
    C0000004  OBJROW     -876.         R0000000  706.        
    C0000005  OBJROW     -931.         R0000000  779.        
    C0000006  OBJROW     -976.         R0000000  182.        
    C0000007  OBJROW     -60.          R0000000  336.        
    C0000008  OBJROW     -24.          R0000000  449.        
    C0000009  OBJROW     -913.         R0000000  729.        
    C0000010  OBJROW     -273.         R0000000  138.        
    C0000011  OBJROW     -169.         R0000000  506.        
    C0000012  OBJROW     -216.         R0000000  377.        
    C0000013  OBJROW     -33.          R0000000  833.        
    C0000014  OBJROW     -168.         R0000000  104.        
    C0000015  OBJROW     -345.         R0000000  153.        
    C0000016  OBJROW     -114.         R0000000  610.        
    C0000017  OBJROW     -353.         R0000000  967.        
    C0000018  OBJROW     -594.         R0000000  339.        
    C0000019  OBJROW     -826.         R0000000  974.        
RHS
    RHS       R0000000  15344.      
BOUNDS
 BV BOUND     C0000000  1.          
 BV BOUND     C0000001  1.          
 BV BOUND     C0000002  1.          
 BV BOUND     C0000003  1.          
 BV BOUND     C0000004  1.          
 BV BOUND     C0000005  1.          
 BV BOUND     C0000006  1.          
 BV BOUND     C0000007  1.          
 BV BOUND     C0000008  1.          
 BV BOUND     C0000009  1.          
 BV BOUND     C0000010  1.          
 BV BOUND     C0000011  1.          
 BV BOUND     C0000012  1.          
 BV BOUND     C0000013  1.          
 BV BOUND     C0000014  1.          
 BV BOUND     C0000015  1.          
 BV BOUND     C0000016  1.          
 BV BOUND     C0000017  1.          
 BV BOUND     C0000018  1.          
 BV BOUND     C0000019  1.          
ENDATA
